p cnf 36 98
a 2 20 0
e 1 3 4 5 6 7 8 9 10 11 12 13 14 15 16 17 18 19 21 22 23 24 25 26 27 28 29 30 31 32 33 34 35 36 0
3 1 0
3 -2 0
-1 2 -3 0
-2 -4 -5 0
2 4 -5 0
-2 4 5 0
2 -4 5 0
4 -6 -7 0
-4 6 -7 0
4 6 7 0
-4 -6 7 0
-9 7 0
-9 8 0
-7 -8 9 0
10 -7 0
10 9 0
7 -9 -10 0
-1 -10 -11 0
1 10 -11 0
-1 10 11 0
1 -10 11 0
-12 4 0
-12 -11 0
-4 11 12 0
13 5 0
13 12 0
-5 -12 -13 0
15 10 0
15 -14 0
-10 14 -15 0
16 -13 0
16 15 0
13 -15 -16 0
-18 6 0
-18 17 0
-6 -17 18 0
19 -6 0
19 6 0
-20 18 0
-20 -19 0
-18 19 20 0
4 -8 -21 0
-4 8 -21 0
4 8 21 0
-4 -8 21 0
-22 21 0
-22 14 0
-21 -14 22 0
23 -20 0
23 -22 0
20 22 -23 0
-16 23 -24 0
16 -23 -24 0
-16 -23 24 0
16 23 24 0
26 7 0
26 -21 0
-7 21 -26 0
27 -25 0
27 26 0
25 -26 -27 0
-28 -24 0
-28 -27 0
24 27 28 0
29 -26 0
29 -6 0
26 6 -29 0
-30 -28 0
-30 29 0
28 -29 30 0
-8 1 -31 0
8 -1 -31 0
-8 -1 31 0
8 1 31 0
-32 9 0
-32 -9 0
-33 -32 0
-33 -10 0
32 10 33 0
34 31 0
34 -33 0
-31 33 -34 0
35 30 0
35 34 0
-30 -34 -35 0
-36 3 0
-36 -35 0
-3 35 36 0
-10 -9 -34 0
29 7 31 -9 0
28 36 1 -19 -35 0
15 -14 -7 0
-19 36 26 7 17 -11 -16 0
-36 -17 -34 15 -28 -20 11 0
17 4 21 30 0
-5 31 -27 -16 33 -17 0
5 -24 -34 14 16 18 0
36 0
